experiment/data/lkh-res/Vrp-Set-X-n106/Vrp-Set-X-n106-lkh/0.lkh1.vrp
NAME : 0
COMMENT : CVRP Instance
TYPE : CVRP
DIMENSION : 106
EDGE_WEIGHT_TYPE : EUC_2D
CAPACITY : 600
NODE_COORD_SECTION
1	0	0
2	61500	19000
3	89000	20000
4	98300	68400
5	95900	74300
6	56900	14600
7	96900	84100
8	60700	25600
9	93600	27400
10	65000	22100
11	94300	54700
12	78900	17200
13	63200	20900
14	84900	16300
15	82900	28300
16	61800	14700
17	92500	62700
18	92500	19200
19	90300	46000
20	66600	36800
21	90600	62200
22	83300	18500
23	41100	13600
24	98900	69100
25	60100	22100
26	42900	50000
27	52200	21800
28	76000	34600
29	67400	18300
30	72000	9900
31	95100	70500
32	89800	15400
33	95300	66100
34	42500	21200
35	77500	15900
36	90000	64900
37	94300	29000
38	72400	31500
39	92700	70500
40	86500	81700
41	87200	16100
42	96600	47800
43	97400	69400
44	66900	15900
45	60300	14000
46	59800	12200
47	71500	23000
48	77700	69300
49	89000	23100
50	77500	23000
51	90800	84900
52	62500	13800
53	49000	18500
54	64300	16300
55	84900	18300
56	99800	67500
57	61900	49500
58	84400	6700
59	86100	27600
60	88800	67900
61	64100	14100
62	86900	76600
63	49500	24400
64	85200	11000
65	97600	14300
66	92100	78300
67	68800	21100
68	85700	19900
69	75800	63600
70	99000	21300
71	97300	80600
72	74800	24000
73	73700	9500
74	93300	66400
75	77000	17200
76	61600	25000
77	64100	14600
78	86700	19900
79	54400	32700
80	71100	27700
81	89300	77800
82	99200	86800
83	68500	1100
84	86900	20400
85	64600	26000
86	84900	18500
87	91800	40000
88	64500	14400
89	92300	33900
90	93100	68600
91	58200	21200
92	100000	30900
93	57200	19200
94	67600	18300
95	98900	5900
96	79800	64200
97	58200	3900
98	68600	18800
99	99500	72000
100	80200	18500
101	60300	12600
102	65700	18500
103	57400	19500
104	66100	17400
105	61400	19500
106	96100	16200
DEMAND_SECTION
1	0
2	81
3	64
4	51
5	61
6	71
7	83
8	92
9	66
10	92
11	78
12	98
13	88
14	70
15	72
16	92
17	84
18	51
19	81
20	71
21	98
22	70
23	53
24	76
25	83
26	83
27	77
28	82
29	88
30	58
31	97
32	53
33	52
34	89
35	87
36	50
37	73
38	58
39	100
40	59
41	67
42	75
43	65
44	80
45	65
46	63
47	59
48	75
49	56
50	76
51	83
52	85
53	96
54	58
55	50
56	54
57	81
58	82
59	99
60	67
61	88
62	92
63	97
64	50
65	62
66	59
67	83
68	86
69	86
70	55
71	99
72	88
73	99
74	80
75	98
76	87
77	81
78	58
79	57
80	87
81	50
82	96
83	63
84	75
85	79
86	100
87	99
88	95
89	57
90	59
91	94
92	91
93	85
94	95
95	50
96	53
97	66
98	56
99	63
100	86
101	71
102	50
103	65
104	78
105	56
106	72
DEPOT_SECTION
1
-1
EOF
