experiment/data/lkh-res/Vrp-Set-X-n106/Vrp-Set-X-n106-lkh/0.lkh1.tour
NAME : 0.2649444.tour
COMMENT : Length = 2649444
COMMENT : Found by LKH-3 [Keld Helsgaun] Tue Apr  9 03:08:15 2024
TYPE : TOUR
DIMENSION : 119
TOUR_SECTION
1
34
53
23
119
87
19
42
11
17
21
57
117
15
59
89
92
37
9
49
84
108
63
91
25
105
2
103
93
113
69
96
39
66
81
62
48
26
114
46
101
52
61
88
77
45
116
75
35
12
50
72
47
8
110
97
83
73
30
44
54
16
6
112
60
90
31
43
24
4
33
74
36
107
102
100
22
86
55
14
41
32
64
111
58
95
65
106
70
18
3
78
68
115
13
10
67
98
94
29
104
118
79
20
28
38
80
85
76
27
109
40
51
82
7
71
5
99
56
-1
EOF
